p cnf 83 1067
-82 -74 0
-76 -66 0
-73 -65 0
-81 -65 0
-81 -73 0
-67 -57 0
-77 -57 0
-77 -67 0
-64 -56 0
-72 -56 0
-72 -64 0
-80 -56 0
-80 -64 0
-80 -72 0
-58 -48 0
-68 -48 0
-68 -58 0
-78 -48 0
-78 -58 0
-78 -68 0
-55 -47 0
-63 -47 0
-63 -55 0
-71 -47 0
-71 -55 0
-71 -63 0
-79 -47 0
-79 -55 0
-79 -63 0
-79 -71 0
-49 -39 0
-59 -39 0
-59 -49 0
-69 -39 0
-69 -49 0
-69 -59 0
-79 -39 0
-79 -49 0
-79 -59 0
-79 -69 0
-46 -38 0
-54 -38 0
-54 -46 0
-62 -38 0
-62 -46 0
-62 -54 0
-70 -38 0
-70 -46 0
-70 -54 0
-70 -62 0
-78 -38 0
-78 -46 0
-78 -54 0
-78 -62 0
-78 -70 0
-40 -30 0
-50 -30 0
-50 -40 0
-60 -30 0
-60 -40 0
-60 -50 0
-70 -30 0
-70 -40 0
-70 -50 0
-70 -60 0
-80 -30 0
-80 -40 0
-80 -50 0
-80 -60 0
-80 -70 0
-37 -29 0
-45 -29 0
-45 -37 0
-53 -29 0
-53 -37 0
-53 -45 0
-61 -29 0
-61 -37 0
-61 -45 0
-61 -53 0
-69 -29 0
-69 -37 0
-69 -45 0
-69 -53 0
-69 -61 0
-77 -29 0
-77 -37 0
-77 -45 0
-77 -53 0
-77 -61 0
-77 -69 0
-31 -21 0
-41 -21 0
-41 -31 0
-51 -21 0
-51 -31 0
-51 -41 0
-61 -21 0
-61 -31 0
-61 -41 0
-61 -51 0
-71 -21 0
-71 -31 0
-71 -41 0
-71 -51 0
-71 -61 0
-81 -21 0
-81 -31 0
-81 -41 0
-81 -51 0
-81 -61 0
-81 -71 0
-28 -20 0
-36 -20 0
-36 -28 0
-44 -20 0
-44 -28 0
-44 -36 0
-52 -20 0
-52 -28 0
-52 -36 0
-52 -44 0
-60 -20 0
-60 -28 0
-60 -36 0
-60 -44 0
-60 -52 0
-68 -20 0
-68 -28 0
-68 -36 0
-68 -44 0
-68 -52 0
-68 -60 0
-76 -20 0
-76 -28 0
-76 -36 0
-76 -44 0
-76 -52 0
-76 -60 0
-76 -68 0
-22 -12 0
-32 -12 0
-32 -22 0
-42 -12 0
-42 -22 0
-42 -32 0
-52 -12 0
-52 -22 0
-52 -32 0
-52 -42 0
-62 -12 0
-62 -22 0
-62 -32 0
-62 -42 0
-62 -52 0
-72 -12 0
-72 -22 0
-72 -32 0
-72 -42 0
-72 -52 0
-72 -62 0
-82 -12 0
-82 -22 0
-82 -32 0
-82 -42 0
-82 -52 0
-82 -62 0
-82 -72 0
-19 -11 0
-27 -11 0
-27 -19 0
-35 -11 0
-35 -19 0
-35 -27 0
-43 -11 0
-43 -19 0
-43 -27 0
-43 -35 0
-51 -11 0
-51 -19 0
-51 -27 0
-51 -35 0
-51 -43 0
-59 -11 0
-59 -19 0
-59 -27 0
-59 -35 0
-59 -43 0
-59 -51 0
-67 -11 0
-67 -19 0
-67 -27 0
-67 -35 0
-67 -43 0
-67 -51 0
-67 -59 0
-75 -11 0
-75 -19 0
-75 -27 0
-75 -35 0
-75 -43 0
-75 -51 0
-75 -59 0
-75 -67 0
-18 -10 0
-26 -10 0
-26 -18 0
-34 -10 0
-34 -18 0
-34 -26 0
-42 -10 0
-42 -18 0
-42 -26 0
-42 -34 0
-50 -10 0
-50 -18 0
-50 -26 0
-50 -34 0
-50 -42 0
-58 -10 0
-58 -18 0
-58 -26 0
-58 -34 0
-58 -42 0
-58 -50 0
-66 -10 0
-66 -18 0
-66 -26 0
-66 -34 0
-66 -42 0
-66 -50 0
-66 -58 0
-20 -10 0
-17 -9 0
-25 -9 0
-25 -17 0
-33 -9 0
-33 -17 0
-33 -25 0
-41 -9 0
-41 -17 0
-41 -25 0
-41 -33 0
-49 -9 0
-49 -17 0
-49 -25 0
-49 -33 0
-49 -41 0
-57 -9 0
-57 -17 0
-57 -25 0
-57 -33 0
-57 -41 0
-57 -49 0
-19 -9 0
-29 -9 0
-29 -19 0
-16 -8 0
-24 -8 0
-24 -16 0
-32 -8 0
-32 -16 0
-32 -24 0
-40 -8 0
-40 -16 0
-40 -24 0
-40 -32 0
-48 -8 0
-48 -16 0
-48 -24 0
-48 -32 0
-48 -40 0
-18 -8 0
-28 -8 0
-28 -18 0
-38 -8 0
-38 -18 0
-38 -28 0
-15 -7 0
-23 -7 0
-23 -15 0
-31 -7 0
-31 -15 0
-31 -23 0
-39 -7 0
-39 -15 0
-39 -23 0
-39 -31 0
-17 -7 0
-27 -7 0
-27 -17 0
-37 -7 0
-37 -17 0
-37 -27 0
-47 -7 0
-47 -17 0
-47 -27 0
-47 -37 0
-14 -6 0
-22 -6 0
-22 -14 0
-30 -6 0
-30 -14 0
-30 -22 0
-16 -6 0
-26 -6 0
-26 -16 0
-36 -6 0
-36 -16 0
-36 -26 0
-46 -6 0
-46 -16 0
-46 -26 0
-46 -36 0
-56 -6 0
-56 -16 0
-56 -26 0
-56 -36 0
-56 -46 0
-13 -5 0
-21 -5 0
-21 -13 0
-15 -5 0
-25 -5 0
-25 -15 0
-35 -5 0
-35 -15 0
-35 -25 0
-45 -5 0
-45 -15 0
-45 -25 0
-45 -35 0
-55 -5 0
-55 -15 0
-55 -25 0
-55 -35 0
-55 -45 0
-65 -5 0
-65 -15 0
-65 -25 0
-65 -35 0
-65 -45 0
-65 -55 0
-12 -4 0
-14 -4 0
-24 -4 0
-24 -14 0
-34 -4 0
-34 -14 0
-34 -24 0
-44 -4 0
-44 -14 0
-44 -24 0
-44 -34 0
-54 -4 0
-54 -14 0
-54 -24 0
-54 -34 0
-54 -44 0
-64 -4 0
-64 -14 0
-64 -24 0
-64 -34 0
-64 -44 0
-64 -54 0
-74 -4 0
-74 -14 0
-74 -24 0
-74 -34 0
-74 -44 0
-74 -54 0
-74 -64 0
-13 -3 0
-23 -3 0
-23 -13 0
-33 -3 0
-33 -13 0
-33 -23 0
-43 -3 0
-43 -13 0
-43 -23 0
-43 -33 0
-53 -3 0
-53 -13 0
-53 -23 0
-53 -33 0
-53 -43 0
-63 -3 0
-63 -13 0
-63 -23 0
-63 -33 0
-63 -43 0
-63 -53 0
-73 -3 0
-73 -13 0
-73 -23 0
-73 -33 0
-73 -43 0
-73 -53 0
-73 -63 0
-83 -3 0
-83 -13 0
-83 -23 0
-83 -33 0
-83 -43 0
-83 -53 0
-83 -63 0
-83 -73 0
83 74 65 56 47 38 29 20 11 0
-20 -11 0
-29 -11 0
-29 -20 0
-38 -11 0
-38 -20 0
-38 -29 0
-47 -11 0
-47 -20 0
-47 -29 0
-47 -38 0
-56 -11 0
-56 -20 0
-56 -29 0
-56 -38 0
-56 -47 0
-65 -11 0
-65 -20 0
-65 -29 0
-65 -38 0
-65 -47 0
-65 -56 0
-74 -11 0
-74 -20 0
-74 -29 0
-74 -38 0
-74 -47 0
-74 -56 0
-74 -65 0
-83 -11 0
-83 -20 0
-83 -29 0
-83 -38 0
-83 -47 0
-83 -56 0
-83 -65 0
-83 -74 0
82 73 64 55 46 37 28 19 10 0
-19 -10 0
-28 -10 0
-28 -19 0
-37 -10 0
-37 -19 0
-37 -28 0
-46 -10 0
-46 -19 0
-46 -28 0
-46 -37 0
-55 -10 0
-55 -19 0
-55 -28 0
-55 -37 0
-55 -46 0
-64 -10 0
-64 -19 0
-64 -28 0
-64 -37 0
-64 -46 0
-64 -55 0
-73 -10 0
-73 -19 0
-73 -28 0
-73 -37 0
-73 -46 0
-73 -55 0
-73 -64 0
-82 -10 0
-82 -19 0
-82 -28 0
-82 -37 0
-82 -46 0
-82 -55 0
-82 -64 0
-82 -73 0
81 72 63 54 45 36 27 18 9 0
-18 -9 0
-27 -9 0
-27 -18 0
-36 -9 0
-36 -18 0
-36 -27 0
-45 -9 0
-45 -18 0
-45 -27 0
-45 -36 0
-54 -9 0
-54 -18 0
-54 -27 0
-54 -36 0
-54 -45 0
-63 -9 0
-63 -18 0
-63 -27 0
-63 -36 0
-63 -45 0
-63 -54 0
-72 -9 0
-72 -18 0
-72 -27 0
-72 -36 0
-72 -45 0
-72 -54 0
-72 -63 0
-81 -9 0
-81 -18 0
-81 -27 0
-81 -36 0
-81 -45 0
-81 -54 0
-81 -63 0
-81 -72 0
80 71 62 53 44 35 26 17 8 0
-17 -8 0
-26 -8 0
-26 -17 0
-35 -8 0
-35 -17 0
-35 -26 0
-44 -8 0
-44 -17 0
-44 -26 0
-44 -35 0
-53 -8 0
-53 -17 0
-53 -26 0
-53 -35 0
-53 -44 0
-62 -8 0
-62 -17 0
-62 -26 0
-62 -35 0
-62 -44 0
-62 -53 0
-71 -8 0
-71 -17 0
-71 -26 0
-71 -35 0
-71 -44 0
-71 -53 0
-71 -62 0
-80 -8 0
-80 -17 0
-80 -26 0
-80 -35 0
-80 -44 0
-80 -53 0
-80 -62 0
-80 -71 0
79 70 61 52 43 34 25 16 7 0
-16 -7 0
-25 -7 0
-25 -16 0
-34 -7 0
-34 -16 0
-34 -25 0
-43 -7 0
-43 -16 0
-43 -25 0
-43 -34 0
-52 -7 0
-52 -16 0
-52 -25 0
-52 -34 0
-52 -43 0
-61 -7 0
-61 -16 0
-61 -25 0
-61 -34 0
-61 -43 0
-61 -52 0
-70 -7 0
-70 -16 0
-70 -25 0
-70 -34 0
-70 -43 0
-70 -52 0
-70 -61 0
-79 -7 0
-79 -16 0
-79 -25 0
-79 -34 0
-79 -43 0
-79 -52 0
-79 -61 0
-79 -70 0
78 69 60 51 42 33 24 15 6 0
-15 -6 0
-24 -6 0
-24 -15 0
-33 -6 0
-33 -15 0
-33 -24 0
-42 -6 0
-42 -15 0
-42 -24 0
-42 -33 0
-51 -6 0
-51 -15 0
-51 -24 0
-51 -33 0
-51 -42 0
-60 -6 0
-60 -15 0
-60 -24 0
-60 -33 0
-60 -42 0
-60 -51 0
-69 -6 0
-69 -15 0
-69 -24 0
-69 -33 0
-69 -42 0
-69 -51 0
-69 -60 0
-78 -6 0
-78 -15 0
-78 -24 0
-78 -33 0
-78 -42 0
-78 -51 0
-78 -60 0
-78 -69 0
77 68 59 50 41 32 23 14 5 0
-14 -5 0
-23 -5 0
-23 -14 0
-32 -5 0
-32 -14 0
-32 -23 0
-41 -5 0
-41 -14 0
-41 -23 0
-41 -32 0
-50 -5 0
-50 -14 0
-50 -23 0
-50 -32 0
-50 -41 0
-59 -5 0
-59 -14 0
-59 -23 0
-59 -32 0
-59 -41 0
-59 -50 0
-68 -5 0
-68 -14 0
-68 -23 0
-68 -32 0
-68 -41 0
-68 -50 0
-68 -59 0
-77 -5 0
-77 -14 0
-77 -23 0
-77 -32 0
-77 -41 0
-77 -50 0
-77 -59 0
-77 -68 0
76 67 58 49 40 31 22 13 4 0
-13 -4 0
-22 -4 0
-22 -13 0
-31 -4 0
-31 -13 0
-31 -22 0
-40 -4 0
-40 -13 0
-40 -22 0
-40 -31 0
-49 -4 0
-49 -13 0
-49 -22 0
-49 -31 0
-49 -40 0
-58 -4 0
-58 -13 0
-58 -22 0
-58 -31 0
-58 -40 0
-58 -49 0
-67 -4 0
-67 -13 0
-67 -22 0
-67 -31 0
-67 -40 0
-67 -49 0
-67 -58 0
-76 -4 0
-76 -13 0
-76 -22 0
-76 -31 0
-76 -40 0
-76 -49 0
-76 -58 0
-76 -67 0
75 66 57 48 39 30 21 12 3 0
-12 -3 0
-21 -3 0
-21 -12 0
-30 -3 0
-30 -12 0
-30 -21 0
-39 -3 0
-39 -12 0
-39 -21 0
-39 -30 0
-48 -3 0
-48 -12 0
-48 -21 0
-48 -30 0
-48 -39 0
-57 -3 0
-57 -12 0
-57 -21 0
-57 -30 0
-57 -39 0
-57 -48 0
-66 -3 0
-66 -12 0
-66 -21 0
-66 -30 0
-66 -39 0
-66 -48 0
-66 -57 0
-75 -3 0
-75 -12 0
-75 -21 0
-75 -30 0
-75 -39 0
-75 -48 0
-75 -57 0
-75 -66 0
-82 -83 0
-81 -83 0
-81 -82 0
-80 -83 0
-80 -82 0
-80 -81 0
-79 -83 0
-79 -82 0
-79 -81 0
-79 -80 0
-78 -83 0
-78 -82 0
-78 -81 0
-78 -80 0
-78 -79 0
-77 -83 0
-77 -82 0
-77 -81 0
-77 -80 0
-77 -79 0
-77 -78 0
-76 -83 0
-76 -82 0
-76 -81 0
-76 -80 0
-76 -79 0
-76 -78 0
-76 -77 0
-75 -83 0
-75 -82 0
-75 -81 0
-75 -80 0
-75 -79 0
-75 -78 0
-75 -77 0
-75 -76 0
-73 -74 0
-72 -74 0
-72 -73 0
-71 -74 0
-71 -73 0
-71 -72 0
-70 -74 0
-70 -73 0
-70 -72 0
-70 -71 0
-69 -74 0
-69 -73 0
-69 -72 0
-69 -71 0
-69 -70 0
-68 -74 0
-68 -73 0
-68 -72 0
-68 -71 0
-68 -70 0
-68 -69 0
-67 -74 0
-67 -73 0
-67 -72 0
-67 -71 0
-67 -70 0
-67 -69 0
-67 -68 0
-66 -74 0
-66 -73 0
-66 -72 0
-66 -71 0
-66 -70 0
-66 -69 0
-66 -68 0
-66 -67 0
-64 -65 0
-63 -65 0
-63 -64 0
-62 -65 0
-62 -64 0
-62 -63 0
-61 -65 0
-61 -64 0
-61 -63 0
-61 -62 0
-60 -65 0
-60 -64 0
-60 -63 0
-60 -62 0
-60 -61 0
-59 -65 0
-59 -64 0
-59 -63 0
-59 -62 0
-59 -61 0
-59 -60 0
-58 -65 0
-58 -64 0
-58 -63 0
-58 -62 0
-58 -61 0
-58 -60 0
-58 -59 0
-57 -65 0
-57 -64 0
-57 -63 0
-57 -62 0
-57 -61 0
-57 -60 0
-57 -59 0
-57 -58 0
-55 -56 0
-54 -56 0
-54 -55 0
-53 -56 0
-53 -55 0
-53 -54 0
-52 -56 0
-52 -55 0
-52 -54 0
-52 -53 0
-51 -56 0
-51 -55 0
-51 -54 0
-51 -53 0
-51 -52 0
-50 -56 0
-50 -55 0
-50 -54 0
-50 -53 0
-50 -52 0
-50 -51 0
-49 -56 0
-49 -55 0
-49 -54 0
-49 -53 0
-49 -52 0
-49 -51 0
-49 -50 0
-48 -56 0
-48 -55 0
-48 -54 0
-48 -53 0
-48 -52 0
-48 -51 0
-48 -50 0
-48 -49 0
-46 -47 0
-45 -47 0
-45 -46 0
-44 -47 0
-44 -46 0
-44 -45 0
-43 -47 0
-43 -46 0
-43 -45 0
-43 -44 0
-42 -47 0
-42 -46 0
-42 -45 0
-42 -44 0
-42 -43 0
-41 -47 0
-41 -46 0
-41 -45 0
-41 -44 0
-41 -43 0
-41 -42 0
-40 -47 0
-40 -46 0
-40 -45 0
-40 -44 0
-40 -43 0
-40 -42 0
-40 -41 0
-39 -47 0
-39 -46 0
-39 -45 0
-39 -44 0
-39 -43 0
-39 -42 0
-39 -41 0
-39 -40 0
-37 -38 0
-36 -38 0
-36 -37 0
-35 -38 0
-35 -37 0
-35 -36 0
-34 -38 0
-34 -37 0
-34 -36 0
-34 -35 0
-33 -38 0
-33 -37 0
-33 -36 0
-33 -35 0
-33 -34 0
-32 -38 0
-32 -37 0
-32 -36 0
-32 -35 0
-32 -34 0
-32 -33 0
-31 -38 0
-31 -37 0
-31 -36 0
-31 -35 0
-31 -34 0
-31 -33 0
-31 -32 0
-30 -38 0
-30 -37 0
-30 -36 0
-30 -35 0
-30 -34 0
-30 -33 0
-30 -32 0
-30 -31 0
-28 -29 0
-27 -29 0
-27 -28 0
-26 -29 0
-26 -28 0
-26 -27 0
-25 -29 0
-25 -28 0
-25 -27 0
-25 -26 0
-24 -29 0
-24 -28 0
-24 -27 0
-24 -26 0
-24 -25 0
-23 -29 0
-23 -28 0
-23 -27 0
-23 -26 0
-23 -25 0
-23 -24 0
-22 -29 0
-22 -28 0
-22 -27 0
-22 -26 0
-22 -25 0
-22 -24 0
-22 -23 0
-21 -29 0
-21 -28 0
-21 -27 0
-21 -26 0
-21 -25 0
-21 -24 0
-21 -23 0
-21 -22 0
-19 -20 0
-18 -20 0
-18 -19 0
-17 -20 0
-17 -19 0
-17 -18 0
-16 -20 0
-16 -19 0
-16 -18 0
-16 -17 0
-15 -20 0
-15 -19 0
-15 -18 0
-15 -17 0
-15 -16 0
-14 -20 0
-14 -19 0
-14 -18 0
-14 -17 0
-14 -16 0
-14 -15 0
-13 -20 0
-13 -19 0
-13 -18 0
-13 -17 0
-13 -16 0
-13 -15 0
-13 -14 0
-12 -20 0
-12 -19 0
-12 -18 0
-12 -17 0
-12 -16 0
-12 -15 0
-12 -14 0
-12 -13 0
-10 -11 0
-9 -11 0
-9 -10 0
-8 -11 0
-8 -10 0
-8 -9 0
-7 -11 0
-7 -10 0
-7 -9 0
-7 -8 0
-6 -11 0
-6 -10 0
-6 -9 0
-6 -8 0
-6 -7 0
-5 -11 0
-5 -10 0
-5 -9 0
-5 -8 0
-5 -7 0
-5 -6 0
-4 -11 0
-4 -10 0
-4 -9 0
-4 -8 0
-4 -7 0
-4 -6 0
-4 -5 0
-3 -11 0
-3 -10 0
-3 -9 0
-3 -8 0
-3 -7 0
-3 -6 0
-3 -5 0
-3 -4 0
1 0
-2 0
